;'^##0-8,9#%,%'^*$I#)h#&#$hh #h%'#h h #h') #/h'#'$h#') #$h #h'h*#h&h#h%'#^/h)#h 'h$&#$h&#^Gh)#'h#)h##)'hh"%h)hh)'$6)h"h'%hh#hh$#h"%h'*#^9#h)##h$&)h'^I#h#) ''$'h#"#)#h#h"#%h)h#h') #3#$h'h')'h#h'h$#h"#%h'*#^9h)##h##h') h$&)'$^=)TB!D$:!<FaWXAa7KKC;35W!WXTW2BTJB]9A7)95SV&a4E#!EBUSW0>VTO Z;FXJ5ZFXX&$+(( +(*#+''-KQKHPLKPQNV)T#:=)9>)9W2;7&FGKK